NAME : optical-integer.pruned_global_4.0.tour
COMMENT : Length = 0
TYPE : TOUR
DIMENSION : 174
TOUR_SECTION
1
3
4
6
8
10
12
14
16
18
20
22
24
26
28
30
31
32
34
36
35
33
97
64
66
68
70
72
74
76
78
80
82
84
85
83
81
79
77
75
73
71
69
67
65
63
62
61
60
59
58
57
56
55
54
86
87
89
91
93
95
98
107
111
100
124
122
103
159
121
119
123
163
137
136
164
167
161
166
126
139
99
138
125
110
129
106
174
160
162
135
116
131
120
173
117
169
144
148
150
154
156
157
168
171
172
170
158
155
153
152
151
149
147
146
145
143
142
141
140
165
115
127
130
133
134
132
128
118
114
102
113
112
108
105
109
101
104
96
94
92
90
88
51
53
52
50
49
47
46
45
44
43
42
41
40
48
29
27
25
23
21
19
17
15
13
11
9
7
5
37
38
39
2
-1
EOF
